
Gurobi 11.0.3 (linux64) logging started Thu Nov 21 16:47:57 2024

Set parameter LogFile to value "/home/yihong/Coding/OR_SUC/SUC_results_bigM100000_thread4/case24_ieee_rts_theta0.5_epsilon0.025_gurobi_seed250000_num_gen100_N_WDR100_load_scaling_factor1_exact_T12quadra_cost.txt"
Set parameter TimeLimit to value 3600
Gurobi Optimizer version 11.0.3 build v11.0.3rc0 (linux64 - "Ubuntu 20.04.6 LTS")

CPU model: AMD EPYC 7532 32-Core Processor, instruction set [SSE2|AVX|AVX2]
Thread count: 64 physical cores, 128 logical processors, using up to 4 threads

Optimize a model with 25823 rows, 15081 columns and 355770 nonzeros
Model fingerprint: 0x33778a1d
Model has 1200 quadratic constraints
Variable types: 13781 continuous, 1300 integer (1300 binary)
Coefficient statistics:
  Matrix range     [3e-04, 1e+05]
  QMatrix range    [2e-03, 8e-03]
  QLMatrix range   [3e-01, 6e+01]
  Objective range  [1e+00, 1e+00]
  Bounds range     [1e+00, 1e+00]
  RHS range        [1e+00, 1e+05]
Presolve removed 21020 rows and 6660 columns
Presolve time: 0.12s
Presolved: 4803 rows, 8421 columns, 29399 nonzeros
Presolved model has 1200 quadratic constraint(s)
Variable types: 7184 continuous, 1237 integer (1237 binary)

Root relaxation: objective 3.650039e+04, 4275 iterations, 0.07 seconds (0.08 work units)

    Nodes    |    Current Node    |     Objective Bounds      |     Work
 Expl Unexpl |  Obj  Depth IntInf | Incumbent    BestBd   Gap | It/Node Time

     0     0 36500.3879    0    3          - 36500.3879      -     -    0s
     0     0 162705.249    0  366          - 162705.249      -     -    0s
     0     0 162710.799    0  366          - 162710.799      -     -    0s
     0     0 288982.017    0  216          - 288982.017      -     -    0s
     0     0 288989.503    0  216          - 288989.503      -     -    0s
     0     0 289345.947    0  143          - 289345.947      -     -    0s
     0     0 289446.224    0  129          - 289446.224      -     -    0s
     0     0 289446.281    0  129          - 289446.281      -     -    0s
     0     2 289446.281    0  129          - 289446.281      -     -    1s
H  170   181                    289756.39190 289448.024  0.11%  14.6    2s
*  170   181              62    289756.39190 289448.024  0.11%  14.6    2s
   446   309 289491.302   16   77 289756.392 289453.689  0.10%  15.4    5s

Cutting planes:
  Gomory: 9
  Implied bound: 35
  MIR: 37
  Flow cover: 35

Explored 1643 nodes (59494 simplex iterations) in 9.99 seconds (9.30 work units)
Thread count was 4 (of 128 available processors)

Solution count 2: 289756 289756 

Optimal solution found (tolerance 1.00e-03)
Warning: max constraint violation (6.9887e-07) exceeds tolerance
Best objective 2.897563919080e+05, best bound 2.894676618257e+05, gap 0.0996%
